0 28 45
1 43 47
2 36 48
3 47 49
4 45 48
5 44 47
6 44 46
7 46 45
8 46 48
9 44 46
10 44 47
11 44 47
12 41 45
13 34 44
14 38 42
15 37 40
16 33 39
17 33 37
18 31 40
19 31 41
20 34 40
21 31 36
22 28 35
23 34 37
24 20 36
25 23 33
26 20 29
27 28 27
28 25 24
29 18 20
30 16 19
31 15 20
32 18 21
33 16 22
34 18 21
35 20 19
36 20 20
37 17 19
38 11 18
39 16 18
40 13 17
41 14 15
42 10 13
43 17 16
44 10 13
45 7 10
46 7 8
47 7 10
48 11 13
49 11 11
50 8 10
51 9 9
52 9 9
53 7 11
54 9 10
55 6 10
56 4 8
57 4 7
58 8 9
59 2 9
60 8 8
61 8 8
62 6 6
63 1 4
64 3 4
65 2 3
66 1 1

